! Solving for graph /home/truongxuanhieu/CPLEX-MIP-for-MinSpanLabeling/benchmarks/cabp/V-nos6.mtx.rnd
! Target value is set to 492
! Lower bound is set to 493
! Upper bound is set to 1013
! Time limit is set to 1800
! Vertices mode is set to Has hole
Version identifier: 22.2.0.0 | 2026-05-04 | 5dff98e58
CPXPARAM_TimeLimit                               1800
Tried aggregator 2 times.
MIP Presolve eliminated 1293 rows and 6513 columns.
MIP Presolve modified 674 coefficients.
Aggregator did 7182 substitutions.
Reduced MIP has 9763 rows, 8474 columns, and 24742 nonzeros.
Reduced MIP has 1964 binaries, 3256 generals, 0 SOSs, and 5834 indicators.
Presolve time = 0.06 sec. (115.70 ticks)
Probing fixed 0 vars, tightened 7736 bounds.
Probing time = 0.04 sec. (18.65 ticks)
Tried aggregator 1 time.
Detecting symmetries...
MIP Presolve modified 3864 coefficients.
Reduced MIP has 9763 rows, 8474 columns, and 24742 nonzeros.
Reduced MIP has 1964 binaries, 6510 generals, 0 SOSs, and 5834 indicators.
Presolve time = 0.03 sec. (25.41 ticks)
Probing time = 0.03 sec. (3.32 ticks)
Clique table members: 3874.
MIP emphasis: balance optimality and feasibility.
MIP search method: dynamic search.
Parallel mode: deterministic, using up to 8 threads.
Root relaxation solution time = 0.39 sec. (101.75 ticks)

        Nodes                                         Cuts/
   Node  Left     Objective  IInf  Best Integer    Best Bound    ItCnt     Gap

      0     0      984.0000  1325                    984.0000        0         
      0     0      984.0000  1325                  Cuts: 2540     1664         
      0     0      984.0000   799                  Cuts: 2540     3642         
      0     0      984.0000   586                  Cuts: 1839     4595         
      0     0      984.0000  1299                  Cuts: 1382     5335         
*     0+    0                         1013.0000      984.0000             2.86%
Detecting symmetries...
      0     2      984.0000   509     1013.0000      984.0000     5335    2.86%
Elapsed time = 3.70 sec. (2196.45 ticks, tree = 0.02 MB, solutions = 1)
     94    82      985.0000   434     1013.0000      984.0000    10746    2.86%
    327   279      985.0000   425     1013.0000      984.0000    14229    2.86%
    522   485      985.0000   434     1013.0000      984.0000    21687    2.86%
    659   552      985.0000   719     1013.0000      984.0000    23903    2.86%
    753   677      985.0000   676     1013.0000      984.0000    33559    2.86%
    947   771      984.0000  1006     1013.0000      984.0000    38089    2.86%
   1198   969      985.0000   823     1013.0000      984.0000    45495    2.86%
   1428  1228      985.0000   835     1013.0000      984.0000    57307    2.86%
   1673  1388      985.0000   860     1013.0000      984.0000    63569    2.86%
*  1818+ 1448                          985.0000      984.0000             0.10%
   2713   355      984.0000  1286      985.0000      984.0000    96700    0.10%
Elapsed time = 7.41 sec. (5311.10 ticks, tree = 2.25 MB, solutions = 5)
   3708   272    infeasible            985.0000      984.0000   121180    0.10%
   4948   132      984.0000   867      985.0000      984.0000   146299    0.10%
*  5536    67      integral     0      984.0000      984.0000   159594    0.00%

Cover cuts applied:  212
Implied bound cuts applied:  3757
Zero-half cuts applied:  2

Root node processing (before b&c):
  Real time             =    3.67 sec. (2180.08 ticks)
Parallel b&c, 8 threads:
  Real time             =    6.70 sec. (5748.34 ticks)
  Sync time (average)   =    1.49 sec.
  Wait time (average)   =    0.00 sec.
                          ------------
Total (root+branch&cut) =   10.37 sec. (7928.42 ticks)
! --------------------------------------------------------
! Solve = 1
! Status = Optimal
! Cplex status = Optimal
! Obj = 984
! BestBound = 984
! --------------------------------------------------------
! --------------------------------------------------------
! Best span = 984
! Labeling: 492 492 492 984 492 984 984 492 492 984 984 492 984 984 984 492 984 492 984 492 492 984 492 984 492 492 984 984 492 984 492 492 984 984 984 492 984 492 492 984 492 984 492 984 492 492 984 492 492 984 492 492 492 984 984 984 984 492 984 984 492 984 984 492 492 984 984 984 984 492 492 492 492 984 984 492 492 492 984 492 492 984 984 984 492 984 984 984 984 492 492 492 984 492 984 984 492 492 492 492 984 492 492 492 492 492 492 984 492 492 492 492 492 492 492 984 492 984 984 984 984 492 984 984 492 492 492 984 984 984 492 492 492 984 492 984 984 492 492 984 984 492 492 984 984 984 492 492 984 492 984 492 984 492 984 984 492 492 492 984 984 984 984 984 492 492 984 492 492 984 984 984 492 984 984 492 492 492 492 492 492 984 984 984 492 984 984 984 492 984 984 984 984 492 984 984 984 492 492 492 984 984 984 984 492 984 984 984 984 984 984 984 984 984 984 492 492 492 984 492 492 984 984 492 492 984 984 984 492 492 492 984 984 984 984 492 984 492 984 492 492 492 492 492 984 492 492 984 984 492 984 984 492 492 492 492 492 492 492 492 984 492 984 492 984 492 492 492 492 492 984 984 984 492 984 492 492 492 984 984 492 984 984 492 984 984 984 984 984 492 492 984 492 984 492 984 984 984 984 984 492 492 984 492 984 984 984 492 984 492 492 492 984 492 492 984 984 984 984 492 984 984 984 492 492 984 492 984 492 492 492 492 984 984 492 492 492 492 984 984 492 984 492 492 492 984 492 492 984 492 984 492 492 984 984 492 492 492 492 492 984 984 492 492 492 984 492 492 984 984 492 984 984 492 492 492 492 984 492 492 492 492 984 492 492 492 492 492 984 984 492 492 492 984 984 984 984 492 492 984 984 492 492 984 492 492 984 984 984 492 984 492 492 492 984 984 492 984 492 984 984 492 492 492 984 984 492 492 984 492 492 984 492 492 984 492 492 492 492 984 492 984 984 492 492 984 492 492 984 984 492 984 984 984 492 492 492 492 492 984 492 984 984 984 984 984 984 984 984 492 984 492 492 492 492 492 492 984 984 492 984 984 492 492 492 984 492 984 984 492 492 984 984 984 492 492 492 984 492 492 984 984 492 984 984 984 984 492 984 492 984 984 984 492 492 492 492 492 984 984 492 492 984 984 492 984 492 984 984 984 492 984 984 984 984 984 984 984 492 984 984 492 492 984 984 984 984 984 492 492 984 984 492 492 492 492 492 984 492 984 492 984 492 984 492 984 984 984 492 984 984 492 984 984 492 492 492 984 984 492 492 984 492 492 984 984 492 984 492 492 492 492 492 984 492 492 984 984 984 984 492 492 492 492 984 984 984 984 984 492 492 984 984 492 492 984 984 492 492 984 984 492 984 492 492 492 984 984 984 984 492 984 984 984 492 492 984 492 984 984 984 984 984 984 492 492 984 984 984 492 984 984 984 984 492 492 984 492 492 984 984 984 492 984 984 984 492 492 984 492 984 492 492 492 492 
! --------------------------------------------------------
